HUN,8,6,589
1,18,2,15,0,1,4,16,3,30,5,21
0,13,2,9,1,1,4,19,3,22,5,14
0,29,2,5,1,17,4,21,3,17,5,24
0,21,1,2,2,14,3,14,4,6,5,2
1,3,0,28,2,27,3,27,5,19,4,27
0,3,2,13,1,25,4,1,5,8,3,24
0,11,2,16,1,1,5,15,4,17,3,14
0,15,2,7,1,3,5,8,3,10,4,13
